n=9;
m=15;
k=2;
initial_edges= [
    (1, 9),
    (1, 2),
    (1, 6),
    (2, 4),
    (2, 5),
    (2, 9),
    (3, 9),
    (3, 6),
    (4, 6),
    (5, 7),
    (6, 7),
    (6, 8),
    (6, 9),
    (7, 8),
    (7, 9 ),
]

